
List of user-set options:

                                    Name   Value                used
                        file_print_level = 5                     yes
                   hessian_approximation = limited-memory        yes
                                  hsllib = /home/grant/packages/ThirdParty-HSL/.libs/libcoinhsl.so  yes
                           linear_solver = ma97                  yes
                                max_iter = 500                   yes
                             output_file = IPOPT.out             yes
                             print_level = 0                     yes
                      print_user_options = yes                   yes
                                      sb = yes                   yes
This is Ipopt version 3.14.7, running with linear solver ma97.

Number of nonzeros in equality constraint Jacobian...:        0
Number of nonzeros in inequality constraint Jacobian.:     1800
Number of nonzeros in Lagrangian Hessian.............:        0

Total number of variables............................:        9
                     variables with only lower bounds:        1
                variables with lower and upper bounds:        0
                     variables with only upper bounds:        0
Total number of equality constraints.................:        0
Total number of inequality constraints...............:      200
        inequality constraints with only lower bounds:        0
   inequality constraints with lower and upper bounds:      150
        inequality constraints with only upper bounds:       50

iter    objective    inf_pr   inf_du lg(mu)  ||d||  lg(rg) alpha_du alpha_pr  ls
   0  1.0000000e-01 7.92e+03 3.27e-01   0.0 0.00e+00    -  0.00e+00 0.00e+00   0
   1  1.0014683e-01 7.91e+03 8.82e+00  -0.2 6.16e+00    -  1.41e-04 1.26e-03f  1
   2  1.0016311e-01 7.91e+03 7.52e+00  -2.3 4.39e+00    -  3.25e-04 1.51e-04h  1
   3  1.0019160e-01 7.90e+03 2.56e+01  -0.4 2.17e+01    -  9.76e-04 2.32e-04h  1
   4  1.0019772e-01 7.90e+03 7.70e+02   0.5 3.43e+02    -  1.13e-03 4.40e-05h  1
   5  1.0025890e-01 7.90e+03 1.75e+03   1.4 8.92e+02    -  8.72e-04 3.61e-04f  1
   6  1.0027055e-01 7.90e+03 2.76e+03   1.8 2.10e+03    -  1.87e-04 1.16e-04h  1
   7  1.0027881e-01 7.90e+03 8.21e+03   1.8 4.11e+03    -  1.86e-04 6.90e-05h  1
   8r 1.0027881e-01 7.90e+03 9.99e+02   1.8 0.00e+00    -  0.00e+00 3.68e-07R  5
   9r 1.4103519e-01 4.73e+03 9.97e+02   0.4 2.11e+03    -  3.58e-04 3.63e-03f  1
iter    objective    inf_pr   inf_du lg(mu)  ||d||  lg(rg) alpha_du alpha_pr  ls
  10r 1.4103519e-01 4.73e+03 9.99e+02   1.0 0.00e+00    -  0.00e+00 4.11e-07R  5
  11r 1.4124090e-01 4.72e+03 9.99e+02   2.7 5.32e+03    -  2.22e-04 2.51e-06f  1
  12r 1.5557151e-01 4.23e+03 9.99e+02   2.5 3.32e+03    -  4.49e-04 2.78e-04f  1
  13r 1.9513677e-01 3.22e+03 9.98e+02   2.4 2.76e+03    -  8.65e-04 9.79e-04f  1
  14  1.9541566e-01 3.21e+03 8.39e+01  -0.2 2.88e+00    -  5.99e-02 1.38e-03h  1
  15  1.9638821e-01 3.20e+03 2.37e+03   0.8 5.79e+00    -  3.34e-01 4.65e-03h  1
  16  1.9715188e-01 3.18e+03 1.65e+05   2.1 3.55e+01    -  5.29e-01 5.05e-03h  1
  17  1.9812616e-01 3.16e+03 2.26e+05   2.8 9.12e+01    -  9.80e-03 6.93e-03h  1
  18  1.9813454e-01 3.16e+03 1.25e+06   2.8 1.24e+02    -  5.88e-03 5.41e-04h  1
  19  1.9813366e-01 3.15e+03 3.37e+06   2.8 2.07e+02    -  1.96e-03 4.88e-04h  1
iter    objective    inf_pr   inf_du lg(mu)  ||d||  lg(rg) alpha_du alpha_pr  ls
  20  1.9814254e-01 3.15e+03 6.04e+06   2.8 3.19e+03    -  1.85e-04 8.77e-05h  1
  21  1.9815520e-01 3.15e+03 5.87e+07   2.8 2.89e+03    -  3.57e-04 4.44e-05h  1
  22  1.9821765e-01 3.15e+03 1.74e+08   2.8 2.03e+03    -  3.92e-05 1.41e-05h  1
  23r 1.9821765e-01 3.15e+03 1.00e+03   2.8 0.00e+00    -  0.00e+00 4.58e-07R  4
  24r 3.4251147e-01 1.37e+03 2.95e+03   1.1 5.21e+01    -  1.10e-01 9.24e-02f  1
  25  3.4290984e-01 1.37e+03 3.42e+01   0.0 5.12e+00    -  1.72e-02 9.14e-04h  1
  26  3.4307283e-01 1.37e+03 5.94e+02   0.3 2.66e+01    -  9.88e-03 6.61e-04h  1
  27  3.4296915e-01 1.37e+03 2.39e+04   1.8 2.63e+02    -  6.52e-03 1.26e-04h  1
  28  3.4299613e-01 1.37e+03 9.96e+05   2.0 8.46e+01    -  6.02e-03 8.92e-05h  1
  29  3.4298534e-01 1.37e+03 1.22e+07   2.3 9.55e+02    -  5.10e-04 3.18e-05h  1
iter    objective    inf_pr   inf_du lg(mu)  ||d||  lg(rg) alpha_du alpha_pr  ls
  30  3.4297134e-01 1.37e+03 1.13e+08   2.4 1.54e+03    -  1.23e-04 1.38e-05h  1
  31r 3.4297134e-01 1.37e+03 9.98e+02   2.3 0.00e+00    -  0.00e+00 1.37e-07R  2
  32r 3.5883312e-01 1.29e+03 1.44e+03   2.4 8.23e+01    -  5.89e-02 2.35e-03f  1
  33r 5.6995989e-01 7.27e+02 1.72e+03   2.6 3.75e+01    -  2.93e-01 5.49e-02f  1
  34  5.7119176e-01 7.24e+02 1.88e+02  -0.2 1.21e+00    -  2.22e-01 2.11e-03h  1
  35  5.7339785e-01 7.17e+02 1.59e+04   0.8 9.56e+00    -  6.68e-01 9.45e-03h  1
  36  5.7341192e-01 7.16e+02 3.81e+06   2.2 1.62e+01    -  1.00e+00 1.81e-03h  1

Number of Iterations....: 37

Number of objective function evaluations             = 54
Number of objective gradient evaluations             = 35
Number of equality constraint evaluations            = 0
Number of inequality constraint evaluations          = 54
Number of equality constraint Jacobian evaluations   = 0
Number of inequality constraint Jacobian evaluations = 41
Number of Lagrangian Hessian evaluations             = 0
Total seconds in IPOPT                               = 13.183

EXIT: Invalid number in NLP function or derivative detected.
